row=10;
column=10;
Board=[|0,0,0,0,0,0,0,0,2,0|0,0,0,0,2,0,0,0,0,0|0,0,0,0,3,0,0,0,0,0|2,0,1,0,0,0,0,0,0,0|6,0,0,0,0,0,0,0,0,0|6,0,2,0,0,0,0,0,0,0|0,0,3,0,0,0,0,0,0,0|0,0,0,0,2,0,0,0,0,0|0,1,0,0,6,0,0,0,0,0|0,0,0,0,3,0,0,0,3,0|];
right = [1,3,1,2,2,2,2,2,3,2];
bottom = [4,1,3,0,5,0,1,0,6,0];
